benchmarks/VRPTW/TSPTW/solution/n100w20.002.txt.solution
1 81 18 3 53 37 21 41 40 35 52 54 97 69 31 84 95 85 23 25 90 28 51 71 83 17 6 74 9 57 15 29 8 96 89 50 82 30 62 66 10 26 11 46 76 63 13 100 22 80 36 33 4 78 2 32 64 27 7 49 75 14 45 38 58 91 60 24 72 56 79 12 5 92 67 16 44 94 68 93 19 59 70 20 55 99 34 87 48 98 42 39 86 77 65 43 61 73 88 101 47 
715
